(set-info :smt-lib-version 2.6)
(set-logic AUFBVFPDTNIRA)
(set-info :source |
Generated by: AdaCore
Generated on: 2020-03-06
Generator: SPARK
Application: Program verification for Ada
Target solver: Z3
|)
(set-info :license "https://creativecommons.org/licenses/by/4.0/")
(set-info :category "industrial")
(set-info :status unknown)
;;; generated by SMT-LIB2 driver
;;; SMT-LIB2 driver: bit-vectors, common part
;;; SMT-LIB2: integer arithmetic
(declare-sort string 0)

(declare-datatypes () ((tuple0 (Tuple0))))
(declare-sort us_private 0)

(declare-fun private__bool_eq (us_private us_private) Bool)

(declare-const us_null_ext__ us_private)

(declare-sort us_type_of_heap 0)

(declare-datatypes ()
((us_type_of_heap__ref
 (us_type_of_heap__refqtmk (us_type_of_heap__content us_type_of_heap)))))
(declare-sort us_image 0)

(declare-datatypes () ((int__ref (int__refqtmk (int__content Int)))))
(declare-datatypes () ((bool__ref (bool__refqtmk (bool__content Bool)))))
(declare-datatypes ()
((us_fixed__ref (us_fixed__refqtmk (us_fixed__content Int)))))
(declare-datatypes () ((real__ref (real__refqtmk (real__content Real)))))
(declare-datatypes ()
((us_private__ref (us_private__refqtmk (us_private__content us_private)))))
(define-fun int__ref___projection ((a int__ref)) Int (int__content a))

(define-fun us_fixed__ref___projection ((a us_fixed__ref)) Int (us_fixed__content
                                                               a))

(define-fun bool__ref___projection ((a bool__ref)) Bool (bool__content a))

(define-fun real__ref___projection ((a real__ref)) Real (real__content a))

(define-fun us_private__ref___projection ((a us_private__ref)) us_private 
  (us_private__content a))

(define-fun in_range ((x Int)) Bool (or (= x 0) (= x 1)))

(declare-fun attr__ATTRIBUTE_IMAGE (Bool) us_image)

(declare-fun attr__ATTRIBUTE_VALUE__pre_check (us_image) Bool)

(declare-fun attr__ATTRIBUTE_VALUE (us_image) Bool)

(declare-sort integer 0)

(declare-fun integerqtint (integer) Int)

;; integer'axiom
  (assert
  (forall ((i integer))
  (and (<= (- 2147483648) (integerqtint i)) (<= (integerqtint i) 2147483647))))

(define-fun in_range1 ((x Int)) Bool (and (<= (- 2147483648) x)
                                     (<= x 2147483647)))

(declare-fun attr__ATTRIBUTE_IMAGE1 (Int) us_image)

(declare-fun attr__ATTRIBUTE_VALUE__pre_check1 (us_image) Bool)

(declare-fun attr__ATTRIBUTE_VALUE1 (us_image) Int)

(declare-fun user_eq (integer integer) Bool)

(declare-const dummy integer)

(declare-datatypes ()
((integer__ref (integer__refqtmk (integer__content integer)))))
(define-fun integer__ref_integer__content__projection ((a integer__ref)) integer 
  (integer__content a))

(define-fun dynamic_invariant ((temp___expr_18 Int) (temp___is_init_14 Bool)
  (temp___skip_constant_15 Bool) (temp___do_toplevel_16 Bool)
  (temp___do_typ_inv_17 Bool)) Bool (=>
                                    (or (= temp___is_init_14 true)
                                    (<= (- 2147483648) 2147483647))
                                    (in_range1 temp___expr_18)))

(declare-const attr__ATTRIBUTE_ADDRESS Int)

(declare-const attr__ATTRIBUTE_ADDRESS1 Int)

(declare-const attr__ATTRIBUTE_ADDRESS2 Int)

(declare-sort t1b 0)

(declare-fun t1bqtint (t1b) Int)

;; t1b'axiom
  (assert (forall ((i t1b)) (and (<= 1 (t1bqtint i)) (<= (t1bqtint i) 5))))

(define-fun in_range2 ((x Int)) Bool (and (<= 1 x) (<= x 5)))

(declare-fun attr__ATTRIBUTE_IMAGE2 (Int) us_image)

(declare-fun attr__ATTRIBUTE_VALUE__pre_check2 (us_image) Bool)

(declare-fun attr__ATTRIBUTE_VALUE2 (us_image) Int)

(declare-fun user_eq1 (t1b t1b) Bool)

(declare-const dummy1 t1b)

(declare-datatypes () ((t1b__ref (t1b__refqtmk (t1b__content t1b)))))
(define-fun t1b__ref_t1b__content__projection ((a t1b__ref)) t1b (t1b__content
                                                                 a))

(define-fun to_rep ((x integer)) Int (integerqtint x))

(declare-fun of_rep (Int) integer)

;; inversion_axiom
  (assert
  (forall ((x integer)) (! (= (of_rep (to_rep x)) x) :pattern ((to_rep x)) )))

;; range_axiom
  (assert
  (forall ((x integer)) (! (in_range1 (to_rep x)) :pattern ((to_rep x)) )))

;; coerce_axiom
  (assert
  (forall ((x Int))
  (! (=> (in_range1 x) (= (to_rep (of_rep x)) x)) :pattern ((to_rep
                                                            (of_rep x))) )))

(define-fun dynamic_property ((first_int Int) (last_int Int)
  (x Int)) Bool (and (<= first_int x) (<= x last_int)))

(declare-fun attr__ATTRIBUTE_IMAGE3 (Int) us_image)

(declare-fun attr__ATTRIBUTE_VALUE__pre_check3 (us_image) Bool)

(declare-fun attr__ATTRIBUTE_VALUE3 (us_image) Int)

(declare-fun user_eq2 (integer integer) Bool)

(declare-const dummy2 integer)

(declare-datatypes () ((t2b__ref (t2b__refqtmk (t2b__content integer)))))
(define-fun t2b__ref_t2b__content__projection ((a t2b__ref)) integer 
  (t2b__content a))

(declare-const count Int)

;; H
  (assert (= count 0))

;; Assume
  (assert (dynamic_invariant count true false true true))

(declare-const i Int)

;; H
  (assert (= i 1))

;; H
  (assert (= (and (ite (<= 1 i) true false) (ite (<= i 5) true false)) true))

(declare-const count1 Int)

(declare-const i1 Int)

;; LoopInvariant
  (assert (= count1 (- i1 1)))

;; H
  (assert
  (= (and (ite (and (dynamic_invariant count1 true true true true) (in_range2
               i1))
          true false) (ite (and (<= 1 i1) (<= i1 5)) true false)) true))

(declare-const count2 Int)

;; H
  (assert (= count2 0))

(declare-const k Int)

;; H
  (assert (= k 1))

;; H
  (assert
  (= (and (ite (<= 1 k) true false) (ite (<= k i1) true false)) true))

(define-fun o () Int (+ count2 1))

(assert
;; defqtvc
 ;; File "loops.adb", line 1, characters 0-0
  (not (in_range1 o)))
(check-sat)

(exit)
